; input_dword_1
(declare-fun b () (_ BitVec 32))
(let ((?x1167 (concat ((_ extract 31 30) b) (bvnot ((_ extract 29 27) b)) ((_ extract 26 24) b) (bvnot ((_ extract 23 22) b)) ((_ extract 21 17) b) (bvnot ((_ extract 16 9) b)) ((_ extract 8 8) b) (bvnot ((_ extract 7 7) b)) ((_ extract 6 6) b) (bvnot ((_ extract 5 3) b)) ((_ extract 2 0) b))))
(let ((?x1126 (bvadd (_ bv3059648126 32) ?x1167)))
(let ((?x1199 (concat (bvnot ((_ extract 29 22) ?x1126)) ((_ extract 21 21) ?x1126) (bvnot ((_ extract 20 19) ?x1126)) ((_ extract 18 17) ?x1126) (bvnot ((_ extract 16 15) ?x1126)) ((_ extract 14 13) ?x1126) (bvnot ((_ extract 12 12) ?x1126)) ((_ extract 11 9) ?x1126) (bvnot ((_ extract 8 7) ?x1126)) ((_ extract 6 6) ?x1126) (bvnot ((_ extract 5 5) ?x1126)) (bvadd (_ bv30 5) (concat (bvnot ((_ extract 4 3) b)) ((_ extract 2 0) b))) (bvnot ((_ extract 31 31) ?x1126)) ((_ extract 30 30) ?x1126))))
(let ((?x1178 (bvadd (_ bv121107096 32) (bvnot (bvadd (_ bv3332872935 32) ?x1199)))))
(let ((?x1063 (concat ((_ extract 11 2) ?x1178) (bvnot (bvadd (_ bv3 2) (concat (bvnot ((_ extract 31 31) ?x1126)) ((_ extract 30 30) ?x1126)))) ((_ extract 31 12) ?x1178))))
(let ((?x1116 (bvadd (_ bv4294967295 32) ?x1063)))
(let ((?x1337 (concat ((_ extract 16 15) (bvadd (_ bv131071 17) ((_ extract 28 12) ?x1178))) (bvnot ((_ extract 14 11) (bvadd (_ bv131071 17) ((_ extract 28 12) ?x1178)))) ((_ extract 10 10) (bvadd (_ bv131071 17) ((_ extract 28 12) ?x1178))) (bvnot ((_ extract 9 9) (bvadd (_ bv131071 17) ((_ extract 28 12) ?x1178)))) ((_ extract 8 8) (bvadd (_ bv131071 17) ((_ extract 28 12) ?x1178))) (bvnot ((_ extract 7 6) (bvadd (_ bv131071 17) ((_ extract 28 12) ?x1178)))) ((_ extract 5 5) (bvadd (_ bv131071 17) ((_ extract 28 12) ?x1178))) (bvnot ((_ extract 4 4) (bvadd (_ bv131071 17) ((_ extract 28 12) ?x1178)))) ((_ extract 3 1) (bvadd (_ bv131071 17) ((_ extract 28 12) ?x1178))) (bvnot (bvadd (_ bv1 1) ((_ extract 12 12) ?x1178))) ((_ extract 31 31) ?x1116) (bvnot ((_ extract 30 30) ?x1116)) ((_ extract 29 27) ?x1116) (bvnot ((_ extract 26 25) ?x1116)) ((_ extract 24 24) ?x1116) (bvnot ((_ extract 23 23) ?x1116)) ((_ extract 22 22) ?x1116) (bvnot ((_ extract 21 19) ?x1116)) ((_ extract 18 18) ?x1116) (bvnot ((_ extract 17 17) ?x1116)))))
(let ((?x1256 (bvadd (_ bv4294967295 32) ?x1337)))
(let ((?x1329 (bvnot ((_ extract 23 23) ?x1256))))
(let ((?x1298 (bvnot ((_ extract 24 24) ?x1256))))
(let ((?x1299 (bvnot ((_ extract 26 25) ?x1256))))
(let ((?x1328 (bvnot ((_ extract 31 27) ?x1256))))
(let ((?x1266 (bvnot (bvadd (_ bv1 1) (bvnot ((_ extract 17 17) ?x1116))))))
(let ((?x1323 ((_ extract 18 13) (bvadd (_ bv404317 19) (concat (bvnot ((_ extract 9 1) ?x1256)) ?x1266 ?x1328 ?x1299 ?x1298 ?x1329)))))
(let ((?x1247 ((_ extract 29 19) (bvadd (_ bv962997085 30) (concat (bvnot ((_ extract 20 1) ?x1256)) ?x1266 ?x1328 ?x1299 ?x1298 ?x1329)))))
(let ((?x1319 (concat (bvnot ((_ extract 22 22) ?x1256)) (bvnot ((_ extract 21 1) ?x1256)) ?x1266 ?x1328 ?x1299 ?x1298 ?x1329)))
(let ((?x1330 ((_ extract 31 30) (bvadd (_ bv2036738909 32) ?x1319))))
(let ((?x1275 (concat (bvadd (_ bv2909 13) (concat (bvnot ((_ extract 3 1) ?x1256)) ?x1266 ?x1328 ?x1299 ?x1298 ?x1329)) ?x1330 ?x1247 ?x1323)))
(let ((?x1309 ((_ extract 31 26) (bvadd (_ bv4294967295 32) ?x1275))))
(let ((?x1354 (concat (bvadd (_ bv29 5) (concat (bvnot ((_ extract 27 27) ?x1256)) ?x1299 ?x1298 ?x1329)) ?x1330 ?x1247 ?x1323)))
(let ((?x1357 (bvadd (_ bv1 30) (concat (bvadd (_ bv16777215 24) ?x1354) ?x1309))))
(let ((?x1312 (concat (bvadd (_ bv93 7) (concat (bvnot ((_ extract 29 27) ?x1256)) ?x1299 ?x1298 ?x1329)) ?x1330 ?x1247 ?x1323)))
(let ((?x1360 ((_ extract 17 13) (bvadd (_ bv404317 19) (concat (bvnot ((_ extract 9 1) ?x1256)) ?x1266 ?x1328 ?x1299 ?x1298 ?x1329)))))
(let ((?x1246 (concat ((_ extract 24 11) ?x1357) (bvadd (_ bv1 11) (concat (bvadd (_ bv31 5) ?x1360) ?x1309)) ((_ extract 31 30) (bvadd (_ bv1 32) (concat (bvadd (_ bv67108863 26) ?x1312) ?x1309))) ((_ extract 29 25) ?x1357))))
(let ((?x1342 (bvadd (_ bv1942396743 32) ?x1246)))
(let ((?x1383 (concat (bvnot ((_ extract 31 31) ?x1342)) ((_ extract 30 25) ?x1342) (bvnot ((_ extract 24 24) ?x1342)) ((_ extract 23 18) ?x1342) (bvnot ((_ extract 17 14) ?x1342)) ((_ extract 13 13) ?x1342) (bvnot ((_ extract 12 12) ?x1342)) ((_ extract 11 7) ?x1342) (bvnot ((_ extract 6 6) ?x1342)) ((_ extract 5 3) ?x1342) (bvnot ((_ extract 2 1) ?x1342)) (bvadd (_ bv1 1) ((_ extract 25 25) ?x1357)))))
(let ((?x1263 (bvadd (_ bv422262737 32) (bvnot (bvadd (_ bv1 32) ?x1383)))))
(let ((?x1395 (concat ((_ extract 22 4) ?x1263) (bvnot ((_ extract 3 3) ?x1263)) ((_ extract 2 2) ?x1263) (bvnot ((_ extract 1 1) ?x1263)) (bvadd (_ bv1 1) (bvnot ((_ extract 25 25) ?x1357))) ((_ extract 31 23) ?x1263))))
(let ((?x1384 (bvadd (_ bv2171031340 32) (bvnot (bvadd (_ bv3493170197 32) ?x1395)))))
(let ((?x1439 (concat (bvnot ((_ extract 21 20) ?x1384)) ((_ extract 19 18) ?x1384) (bvnot ((_ extract 17 17) ?x1384)) (bvnot ((_ extract 16 13) ?x1384)) (bvnot ((_ extract 12 12) ?x1384)) ((_ extract 11 9) ?x1384) (bvnot ((_ extract 8 7) ?x1384)) ((_ extract 6 3) ?x1384) (bvnot ((_ extract 2 2) ?x1384)) ((_ extract 1 1) ?x1384) (bvnot (bvadd (_ bv1 1) ((_ extract 23 23) ?x1263))) (bvnot ((_ extract 31 31) ?x1384)) (bvnot ((_ extract 30 30) ?x1384)) ((_ extract 29 29) ?x1384) (bvnot ((_ extract 28 28) ?x1384)) ((_ extract 27 26) ?x1384) (bvnot ((_ extract 25 25) ?x1384)) ((_ extract 24 24) ?x1384) (bvnot ((_ extract 23 23) ?x1384)) (bvnot ((_ extract 22 22) ?x1384)))))
(let ((?x1402 (bvadd (_ bv1 32) ?x1439)))
(let ((?x1396 (concat ((_ extract 12 1) ?x1402) (bvnot (bvadd (_ bv1 1) (bvnot ((_ extract 22 22) ?x1384)))) ((_ extract 31 13) ?x1402))))
(let ((?x1425 (concat (bvnot (bvadd (_ bv6732 16) ((_ extract 28 13) ?x1402))) (bvnot ((_ extract 31 16) (bvadd (_ bv371792460 32) ?x1396))))))
(let ((?x1418 (concat (bvnot (bvadd (_ bv76 7) ((_ extract 19 13) ?x1402))) (bvnot ((_ extract 31 16) (bvadd (_ bv371792460 32) ?x1396))))))
(let ((?x1485 ((_ extract 31 1) (bvadd (_ bv3562860298 32) (concat (bvadd (_ bv1 23) ?x1418) ((_ extract 31 23) (bvadd (_ bv1 32) ?x1425)))))))
(let ((?x1261 (bvadd (_ bv4294967295 32) (concat ?x1485 (bvnot ((_ extract 23 23) (bvadd (_ bv1 32) ?x1425)))))))
(let ((?x1490 ((_ extract 8 1) (bvadd (_ bv3562860298 32) (concat (bvadd (_ bv1 23) ?x1418) ((_ extract 31 23) (bvadd (_ bv1 32) ?x1425)))))))
(let ((?x1457 (concat ((_ extract 12 10) ?x1261) (bvnot ((_ extract 9 9) ?x1261)) (bvadd (_ bv511 9) (concat ?x1490 (bvnot ((_ extract 23 23) (bvadd (_ bv1 32) ?x1425))))) ((_ extract 31 13) ?x1261))))
(let ((?x1437 (bvadd (_ bv3499560052 32) (concat ((_ extract 31 1) (bvadd (_ bv116244530 32) ?x1457)) (bvnot ((_ extract 13 13) ?x1261))))))
(let ((?x1518 (concat ((_ extract 1 1) (bvadd (_ bv116244530 32) ?x1457)) (bvnot ((_ extract 13 13) ?x1261)) (bvnot ((_ extract 31 30) ?x1437)) ((_ extract 29 28) ?x1437) (bvnot ((_ extract 27 26) ?x1437)) ((_ extract 25 23) ?x1437) (bvnot ((_ extract 22 22) ?x1437)) ((_ extract 21 20) ?x1437) (bvnot ((_ extract 19 17) ?x1437)) ((_ extract 16 15) ?x1437) (bvnot ((_ extract 14 14) ?x1437)) ((_ extract 13 13) ?x1437) (bvnot ((_ extract 12 10) ?x1437)) ((_ extract 9 9) ?x1437) (bvnot ((_ extract 8 7) ?x1437)) ((_ extract 6 5) ?x1437) (bvnot ((_ extract 4 4) ?x1437)) ((_ extract 3 3) ?x1437) (bvnot ((_ extract 2 2) ?x1437)))))
(let ((?x1380 (bvadd (_ bv2 32) ?x1518)))
(let ((?x1517 (bvadd (_ bv2 3) (concat (bvnot ((_ extract 4 4) ?x1437)) ((_ extract 3 3) ?x1437) (bvnot ((_ extract 2 2) ?x1437))))))
(concat (bvnot ((_ extract 6 6) ?x1380)) ((_ extract 5 3) ?x1380) (bvnot ((_ extract 2 2) ?x1517)) ((_ extract 1 1) ?x1517) ((_ extract 2 2) ?x1437) (bvnot ((_ extract 31 31) ?x1380)) ((_ extract 30 29) ?x1380) (bvnot ((_ extract 28 27) ?x1380)) ((_ extract 26 25) ?x1380) (bvnot ((_ extract 24 19) ?x1380)) ((_ extract 18 17) ?x1380) (bvnot ((_ extract 16 16) ?x1380)) ((_ extract 15 13) ?x1380) (bvnot ((_ extract 12 9) ?x1380)) ((_ extract 8 8) ?x1380) (bvnot ((_ extract 7 7) ?x1380)))))))))))))))))))))))))))))))))))))))))))))